
%FILE DATA:	Soccer Computational Problem for MiniZinc Models	%
%AUTHOR:	Jack Wall	%
%CONTACT:  	116397063@umail.ucc.ie			%
%LAST UPDATE:	03/03/2020, 12:12:28						%
%DESCRIPTION: 	45 games played with 27 games left				%


n=9; %number of teams

%Games to play
games=[|2,8|3,2|1,6|8,4|4,1|5,4|4,5|6,5|4,7|6,1|1,3|6,2|7,1|5,1|7,8|7,4|8,6|3,8|6,4|4,8|8,1|6,7|7,2|9,6|7,5|4,9|2,6|];

%Initial points
iPoints=[16,15,17,5,19,7,13,12,20];

%POSITION CONSTRAINTS
% [|teamID, operator, position|...]
% operators index:
%  1 for =  operator
%  2 for >  operator
%  3 for >= operator
%  4 for <  operator
%  5 for <= operator
positionConstraints=[|9,3,1|5,5,2|];